60

 0   1   2   3   1   2   3   4   2   3   4   5   3   4   5   6   4   5   6   7   5   6   7   8   6   7   8   9   7   8   9  10   8   9  10  11   9  10  11  12  10  11  12  13  11  12  13  14  12  13  14  15  13  14  15  16  14  15  16  17  
 1   0   1   2   2   1   2   3   3   2   3   4   4   3   4   5   5   4   5   6   6   5   6   7   7   6   7   8   8   7   8   9   9   8   9  10  10   9  10  11  11  10  11  12  12  11  12  13  13  12  13  14  14  13  14  15  15  14  15  16  
 2   1   0   1   3   2   1   2   4   3   2   3   5   4   3   4   6   5   4   5   7   6   5   6   8   7   6   7   9   8   7   8  10   9   8   9  11  10   9  10  12  11  10  11  13  12  11  12  14  13  12  13  15  14  13  14  16  15  14  15  
 3   2   1   0   4   3   2   1   5   4   3   2   6   5   4   3   7   6   5   4   8   7   6   5   9   8   7   6  10   9   8   7  11  10   9   8  12  11  10   9  13  12  11  10  14  13  12  11  15  14  13  12  16  15  14  13  17  16  15  14  
 1   2   3   4   0   1   2   3   1   2   3   4   2   3   4   5   3   4   5   6   4   5   6   7   5   6   7   8   6   7   8   9   7   8   9  10   8   9  10  11   9  10  11  12  10  11  12  13  11  12  13  14  12  13  14  15  13  14  15  16  
 2   1   2   3   1   0   1   2   2   1   2   3   3   2   3   4   4   3   4   5   5   4   5   6   6   5   6   7   7   6   7   8   8   7   8   9   9   8   9  10  10   9  10  11  11  10  11  12  12  11  12  13  13  12  13  14  14  13  14  15  
 3   2   1   2   2   1   0   1   3   2   1   2   4   3   2   3   5   4   3   4   6   5   4   5   7   6   5   6   8   7   6   7   9   8   7   8  10   9   8   9  11  10   9  10  12  11  10  11  13  12  11  12  14  13  12  13  15  14  13  14  
 4   3   2   1   3   2   1   0   4   3   2   1   5   4   3   2   6   5   4   3   7   6   5   4   8   7   6   5   9   8   7   6  10   9   8   7  11  10   9   8  12  11  10   9  13  12  11  10  14  13  12  11  15  14  13  12  16  15  14  13  
 2   3   4   5   1   2   3   4   0   1   2   3   1   2   3   4   2   3   4   5   3   4   5   6   4   5   6   7   5   6   7   8   6   7   8   9   7   8   9  10   8   9  10  11   9  10  11  12  10  11  12  13  11  12  13  14  12  13  14  15  
 3   2   3   4   2   1   2   3   1   0   1   2   2   1   2   3   3   2   3   4   4   3   4   5   5   4   5   6   6   5   6   7   7   6   7   8   8   7   8   9   9   8   9  10  10   9  10  11  11  10  11  12  12  11  12  13  13  12  13  14  
 4   3   2   3   3   2   1   2   2   1   0   1   3   2   1   2   4   3   2   3   5   4   3   4   6   5   4   5   7   6   5   6   8   7   6   7   9   8   7   8  10   9   8   9  11  10   9  10  12  11  10  11  13  12  11  12  14  13  12  13  
 5   4   3   2   4   3   2   1   3   2   1   0   4   3   2   1   5   4   3   2   6   5   4   3   7   6   5   4   8   7   6   5   9   8   7   6  10   9   8   7  11  10   9   8  12  11  10   9  13  12  11  10  14  13  12  11  15  14  13  12  
 3   4   5   6   2   3   4   5   1   2   3   4   0   1   2   3   1   2   3   4   2   3   4   5   3   4   5   6   4   5   6   7   5   6   7   8   6   7   8   9   7   8   9  10   8   9  10  11   9  10  11  12  10  11  12  13  11  12  13  14  
 4   3   4   5   3   2   3   4   2   1   2   3   1   0   1   2   2   1   2   3   3   2   3   4   4   3   4   5   5   4   5   6   6   5   6   7   7   6   7   8   8   7   8   9   9   8   9  10  10   9  10  11  11  10  11  12  12  11  12  13  
 5   4   3   4   4   3   2   3   3   2   1   2   2   1   0   1   3   2   1   2   4   3   2   3   5   4   3   4   6   5   4   5   7   6   5   6   8   7   6   7   9   8   7   8  10   9   8   9  11  10   9  10  12  11  10  11  13  12  11  12  
 6   5   4   3   5   4   3   2   4   3   2   1   3   2   1   0   4   3   2   1   5   4   3   2   6   5   4   3   7   6   5   4   8   7   6   5   9   8   7   6  10   9   8   7  11  10   9   8  12  11  10   9  13  12  11  10  14  13  12  11  
 4   5   6   7   3   4   5   6   2   3   4   5   1   2   3   4   0   1   2   3   1   2   3   4   2   3   4   5   3   4   5   6   4   5   6   7   5   6   7   8   6   7   8   9   7   8   9  10   8   9  10  11   9  10  11  12  10  11  12  13  
 5   4   5   6   4   3   4   5   3   2   3   4   2   1   2   3   1   0   1   2   2   1   2   3   3   2   3   4   4   3   4   5   5   4   5   6   6   5   6   7   7   6   7   8   8   7   8   9   9   8   9  10  10   9  10  11  11  10  11  12  
 6   5   4   5   5   4   3   4   4   3   2   3   3   2   1   2   2   1   0   1   3   2   1   2   4   3   2   3   5   4   3   4   6   5   4   5   7   6   5   6   8   7   6   7   9   8   7   8  10   9   8   9  11  10   9  10  12  11  10  11  
 7   6   5   4   6   5   4   3   5   4   3   2   4   3   2   1   3   2   1   0   4   3   2   1   5   4   3   2   6   5   4   3   7   6   5   4   8   7   6   5   9   8   7   6  10   9   8   7  11  10   9   8  12  11  10   9  13  12  11  10  
 5   6   7   8   4   5   6   7   3   4   5   6   2   3   4   5   1   2   3   4   0   1   2   3   1   2   3   4   2   3   4   5   3   4   5   6   4   5   6   7   5   6   7   8   6   7   8   9   7   8   9  10   8   9  10  11   9  10  11  12  
 6   5   6   7   5   4   5   6   4   3   4   5   3   2   3   4   2   1   2   3   1   0   1   2   2   1   2   3   3   2   3   4   4   3   4   5   5   4   5   6   6   5   6   7   7   6   7   8   8   7   8   9   9   8   9  10  10   9  10  11  
 7   6   5   6   6   5   4   5   5   4   3   4   4   3   2   3   3   2   1   2   2   1   0   1   3   2   1   2   4   3   2   3   5   4   3   4   6   5   4   5   7   6   5   6   8   7   6   7   9   8   7   8  10   9   8   9  11  10   9  10  
 8   7   6   5   7   6   5   4   6   5   4   3   5   4   3   2   4   3   2   1   3   2   1   0   4   3   2   1   5   4   3   2   6   5   4   3   7   6   5   4   8   7   6   5   9   8   7   6  10   9   8   7  11  10   9   8  12  11  10   9  
 6   7   8   9   5   6   7   8   4   5   6   7   3   4   5   6   2   3   4   5   1   2   3   4   0   1   2   3   1   2   3   4   2   3   4   5   3   4   5   6   4   5   6   7   5   6   7   8   6   7   8   9   7   8   9  10   8   9  10  11  
 7   6   7   8   6   5   6   7   5   4   5   6   4   3   4   5   3   2   3   4   2   1   2   3   1   0   1   2   2   1   2   3   3   2   3   4   4   3   4   5   5   4   5   6   6   5   6   7   7   6   7   8   8   7   8   9   9   8   9  10  
 8   7   6   7   7   6   5   6   6   5   4   5   5   4   3   4   4   3   2   3   3   2   1   2   2   1   0   1   3   2   1   2   4   3   2   3   5   4   3   4   6   5   4   5   7   6   5   6   8   7   6   7   9   8   7   8  10   9   8   9  
 9   8   7   6   8   7   6   5   7   6   5   4   6   5   4   3   5   4   3   2   4   3   2   1   3   2   1   0   4   3   2   1   5   4   3   2   6   5   4   3   7   6   5   4   8   7   6   5   9   8   7   6  10   9   8   7  11  10   9   8  
 7   8   9  10   6   7   8   9   5   6   7   8   4   5   6   7   3   4   5   6   2   3   4   5   1   2   3   4   0   1   2   3   1   2   3   4   2   3   4   5   3   4   5   6   4   5   6   7   5   6   7   8   6   7   8   9   7   8   9  10  
 8   7   8   9   7   6   7   8   6   5   6   7   5   4   5   6   4   3   4   5   3   2   3   4   2   1   2   3   1   0   1   2   2   1   2   3   3   2   3   4   4   3   4   5   5   4   5   6   6   5   6   7   7   6   7   8   8   7   8   9  
 9   8   7   8   8   7   6   7   7   6   5   6   6   5   4   5   5   4   3   4   4   3   2   3   3   2   1   2   2   1   0   1   3   2   1   2   4   3   2   3   5   4   3   4   6   5   4   5   7   6   5   6   8   7   6   7   9   8   7   8  
10   9   8   7   9   8   7   6   8   7   6   5   7   6   5   4   6   5   4   3   5   4   3   2   4   3   2   1   3   2   1   0   4   3   2   1   5   4   3   2   6   5   4   3   7   6   5   4   8   7   6   5   9   8   7   6  10   9   8   7  
 8   9  10  11   7   8   9  10   6   7   8   9   5   6   7   8   4   5   6   7   3   4   5   6   2   3   4   5   1   2   3   4   0   1   2   3   1   2   3   4   2   3   4   5   3   4   5   6   4   5   6   7   5   6   7   8   6   7   8   9  
 9   8   9  10   8   7   8   9   7   6   7   8   6   5   6   7   5   4   5   6   4   3   4   5   3   2   3   4   2   1   2   3   1   0   1   2   2   1   2   3   3   2   3   4   4   3   4   5   5   4   5   6   6   5   6   7   7   6   7   8  
10   9   8   9   9   8   7   8   8   7   6   7   7   6   5   6   6   5   4   5   5   4   3   4   4   3   2   3   3   2   1   2   2   1   0   1   3   2   1   2   4   3   2   3   5   4   3   4   6   5   4   5   7   6   5   6   8   7   6   7  
11  10   9   8  10   9   8   7   9   8   7   6   8   7   6   5   7   6   5   4   6   5   4   3   5   4   3   2   4   3   2   1   3   2   1   0   4   3   2   1   5   4   3   2   6   5   4   3   7   6   5   4   8   7   6   5   9   8   7   6  
 9  10  11  12   8   9  10  11   7   8   9  10   6   7   8   9   5   6   7   8   4   5   6   7   3   4   5   6   2   3   4   5   1   2   3   4   0   1   2   3   1   2   3   4   2   3   4   5   3   4   5   6   4   5   6   7   5   6   7   8  
10   9  10  11   9   8   9  10   8   7   8   9   7   6   7   8   6   5   6   7   5   4   5   6   4   3   4   5   3   2   3   4   2   1   2   3   1   0   1   2   2   1   2   3   3   2   3   4   4   3   4   5   5   4   5   6   6   5   6   7  
11  10   9  10  10   9   8   9   9   8   7   8   8   7   6   7   7   6   5   6   6   5   4   5   5   4   3   4   4   3   2   3   3   2   1   2   2   1   0   1   3   2   1   2   4   3   2   3   5   4   3   4   6   5   4   5   7   6   5   6  
12  11  10   9  11  10   9   8  10   9   8   7   9   8   7   6   8   7   6   5   7   6   5   4   6   5   4   3   5   4   3   2   4   3   2   1   3   2   1   0   4   3   2   1   5   4   3   2   6   5   4   3   7   6   5   4   8   7   6   5  
10  11  12  13   9  10  11  12   8   9  10  11   7   8   9  10   6   7   8   9   5   6   7   8   4   5   6   7   3   4   5   6   2   3   4   5   1   2   3   4   0   1   2   3   1   2   3   4   2   3   4   5   3   4   5   6   4   5   6   7  
11  10  11  12  10   9  10  11   9   8   9  10   8   7   8   9   7   6   7   8   6   5   6   7   5   4   5   6   4   3   4   5   3   2   3   4   2   1   2   3   1   0   1   2   2   1   2   3   3   2   3   4   4   3   4   5   5   4   5   6  
12  11  10  11  11  10   9  10  10   9   8   9   9   8   7   8   8   7   6   7   7   6   5   6   6   5   4   5   5   4   3   4   4   3   2   3   3   2   1   2   2   1   0   1   3   2   1   2   4   3   2   3   5   4   3   4   6   5   4   5  
13  12  11  10  12  11  10   9  11  10   9   8  10   9   8   7   9   8   7   6   8   7   6   5   7   6   5   4   6   5   4   3   5   4   3   2   4   3   2   1   3   2   1   0   4   3   2   1   5   4   3   2   6   5   4   3   7   6   5   4  
11  12  13  14  10  11  12  13   9  10  11  12   8   9  10  11   7   8   9  10   6   7   8   9   5   6   7   8   4   5   6   7   3   4   5   6   2   3   4   5   1   2   3   4   0   1   2   3   1   2   3   4   2   3   4   5   3   4   5   6  
12  11  12  13  11  10  11  12  10   9  10  11   9   8   9  10   8   7   8   9   7   6   7   8   6   5   6   7   5   4   5   6   4   3   4   5   3   2   3   4   2   1   2   3   1   0   1   2   2   1   2   3   3   2   3   4   4   3   4   5  
13  12  11  12  12  11  10  11  11  10   9  10  10   9   8   9   9   8   7   8   8   7   6   7   7   6   5   6   6   5   4   5   5   4   3   4   4   3   2   3   3   2   1   2   2   1   0   1   3   2   1   2   4   3   2   3   5   4   3   4  
14  13  12  11  13  12  11  10  12  11  10   9  11  10   9   8  10   9   8   7   9   8   7   6   8   7   6   5   7   6   5   4   6   5   4   3   5   4   3   2   4   3   2   1   3   2   1   0   4   3   2   1   5   4   3   2   6   5   4   3  
12  13  14  15  11  12  13  14  10  11  12  13   9  10  11  12   8   9  10  11   7   8   9  10   6   7   8   9   5   6   7   8   4   5   6   7   3   4   5   6   2   3   4   5   1   2   3   4   0   1   2   3   1   2   3   4   2   3   4   5  
13  12  13  14  12  11  12  13  11  10  11  12  10   9  10  11   9   8   9  10   8   7   8   9   7   6   7   8   6   5   6   7   5   4   5   6   4   3   4   5   3   2   3   4   2   1   2   3   1   0   1   2   2   1   2   3   3   2   3   4  
14  13  12  13  13  12  11  12  12  11  10  11  11  10   9  10  10   9   8   9   9   8   7   8   8   7   6   7   7   6   5   6   6   5   4   5   5   4   3   4   4   3   2   3   3   2   1   2   2   1   0   1   3   2   1   2   4   3   2   3  
15  14  13  12  14  13  12  11  13  12  11  10  12  11  10   9  11  10   9   8  10   9   8   7   9   8   7   6   8   7   6   5   7   6   5   4   6   5   4   3   5   4   3   2   4   3   2   1   3   2   1   0   4   3   2   1   5   4   3   2  
13  14  15  16  12  13  14  15  11  12  13  14  10  11  12  13   9  10  11  12   8   9  10  11   7   8   9  10   6   7   8   9   5   6   7   8   4   5   6   7   3   4   5   6   2   3   4   5   1   2   3   4   0   1   2   3   1   2   3   4  
14  13  14  15  13  12  13  14  12  11  12  13  11  10  11  12  10   9  10  11   9   8   9  10   8   7   8   9   7   6   7   8   6   5   6   7   5   4   5   6   4   3   4   5   3   2   3   4   2   1   2   3   1   0   1   2   2   1   2   3  
15  14  13  14  14  13  12  13  13  12  11  12  12  11  10  11  11  10   9  10  10   9   8   9   9   8   7   8   8   7   6   7   7   6   5   6   6   5   4   5   5   4   3   4   4   3   2   3   3   2   1   2   2   1   0   1   3   2   1   2  
16  15  14  13  15  14  13  12  14  13  12  11  13  12  11  10  12  11  10   9  11  10   9   8  10   9   8   7   9   8   7   6   8   7   6   5   7   6   5   4   6   5   4   3   5   4   3   2   4   3   2   1   3   2   1   0   4   3   2   1  
14  15  16  17  13  14  15  16  12  13  14  15  11  12  13  14  10  11  12  13   9  10  11  12   8   9  10  11   7   8   9  10   6   7   8   9   5   6   7   8   4   5   6   7   3   4   5   6   2   3   4   5   1   2   3   4   0   1   2   3  
15  14  15  16  14  13  14  15  13  12  13  14  12  11  12  13  11  10  11  12  10   9  10  11   9   8   9  10   8   7   8   9   7   6   7   8   6   5   6   7   5   4   5   6   4   3   4   5   3   2   3   4   2   1   2   3   1   0   1   2  
16  15  14  15  15  14  13  14  14  13  12  13  13  12  11  12  12  11  10  11  11  10   9  10  10   9   8   9   9   8   7   8   8   7   6   7   7   6   5   6   6   5   4   5   5   4   3   4   4   3   2   3   3   2   1   2   2   1   0   1  
17  16  15  14  16  15  14  13  15  14  13  12  14  13  12  11  13  12  11  10  12  11  10   9  11  10   9   8  10   9   8   7   9   8   7   6   8   7   6   5   7   6   5   4   6   5   4   3   5   4   3   2   4   3   2   1   3   2   1   0  

 0   0  38   0   1  39   0   0   0   0   0  18  49   4   3   0   0   0   0  19   0  68   0   0  52   0   0   0  27   0  52   0  91   0   1   0   0   0   1   0   0   0   0   0   0   0   0   0   1   9  16   6   0   0   1   0   0   1  67   0  
 5   0   0   0   0  23   1   0  96   0   0  24   0   0   0   0   0  15  20   0   3   0   0   0   1   0   7   0   0   0  80   1   0   1  60   1   0   0   0   0   1  54  88  54   0  57   0   0   0   1   0   1   0   0   0  75   0  26  18   0  
 0   1   0   0   1   7  70  47   0   0   0   0   0  41   0  54  12  10   0   0   0  68   0   2   0  79   2   8   0   9   1  12   0   1  31   0   8   1   0   1  96  79   0  11  68   0   0   2   0   0   0   0   0   0   0  17   0   0   0   1  
 0   0  54   0  38   0   0  35   0   0   0   0   3   0   2   0   0   0  96   0   2  78   0   9   4   0  71   0   8   0   1   0  62   0  11   0   0   0   1   0   0   0  28   0  50   0   0   0   0   0   0   0   0   0   0   0   0   0  13  36  
 0  63   0   1   0  25   0  24   3   2  79   0   0   1  29   0   0  12   0   0   0   8   1   0  87   0   0   0   0  13  57  18   0  31   0   0  47   0   0   0   1   0   0   0   1   0   0   0   4   0   0   0   0  35   0   0   1  90   0  53  
 0  13   0  33   0   0   0   0   0  79  19   8   0   1   1   1   0   0   0   0  10  28  10  44   0   6   0   0   0  12  99   2   0   0   0   0  15   0   0   0  19  90   0   0  13   0   7   0  52   0   0   0  73  20  11  92   1   1   1   0  
 0   0   0   0   0   0   0   0   0   0  23   0   0   0   0  26   0   0   0   0   0   0   0   0  40  14   1   1   0   7   0   0   6  37   0  29   0  45   0   1   0  29   0   0   1   1  11   0   0   0  73   0   0  26   0   0   0  52   0  73  
31   1   1  50   0   0   1   0   1   6   0   0  89   0  59  11   1   0   0  11   0   0   0   0   0   0   0   0   1   0   0   0   1  11  25   0   0   0   0   0   0   0   0   4  10   0   0   1   0   0   0   0   0   0  69   0   0   1   0  26  
15  46   6   0   0   1   0   0   0  32   0  51   0   0  55   0  35   1  12   0   0   1   0   0   1   0   0   1   0   0   0   1   0  96   0  10   0   0   0  51   5   1   1  36   0   0  34  46   0   0  30   0   1   1   0   0   0   5  14   0  
 0  68   0  50   1  58   5   0   0   0   0   0   0  16   3   0   0   0   1   0   0  97   0   0   4  18   1   1   0   0   0  30   0   0   0   0   0   0   0  23  93   0   0   1  73   0   0   0  21   1  15  33   0  10   0   0  25   2   0  29  
 0   0  72   0  72   1  39   0  60   0   0   0   0  59   0   0   0  78  39   0  86  26   7   0  28   0   0   0   0   0  70   0   1   4   0   0   1   0  19   4   0   0   0  18   0   0   1   0   1   0   0   1   0   0   0   1   0   0   0   0  
 1   0  59   0   0   0  75   0  66   3   1   0   0   0   0   0   0   0   0   0   0   0   1   0   1   2   0   0   0   0   0   0  88   0   0   6  44   0   0  66   0   1  24   0  67  79   0   0  23   1   0   0   0   1   0   9   2   0   7   0  
 0   0   0   0   0  69   0   4   0   6   0   0   0  12   0   0   0   0  11  26   0   0   0   0   2  29   0   0   0  53  12   0   0  28   0   0   0   0  21   1  15   8  91  27   0   0   0   5  42   0   0  13   0   0   1   1  53   0  73  79  
 1   0   0  23   1   0   0   0   0   1   4   1   0   0   0   5   0   0   0  22  33  64  97   0   0   0   1   0   0   0  10   0   0  42   0  95   0   0   0   0   0   0   0   3   0  51  13   0   0   0   8   0   0   1   0  12   7   1   0   0  
 0   0   0   0  21   0   0   0   0   0   0   0   0   0   0   0   0   3   0   0   0   0   0  78  27   0  17  27   0   0   3   4  70   0  30   1   0   0  49  37   0   0  18  32   0   0   0   0   0   7   0   0   1   0   0   0   0   0   0   0  
 0   0   0   0   0   0   9   0   0  12   0   0   8   0   0   0   0   0   1   0   0  22   5   0   0   0  14   0   0   0   0  34   1   0   0   0   0   0   2   4  35   0   0   0   0   0   1   0   0  18  18  10   0   0   0   0   0   0   0  16  
 0  32  81  47   0   1   0   1  62   0   0   0   0  94  66   0   0  40   0   0   0  25   0  45  28  86  50   1   0  70   0   0   1   1   0   0   1   0   0   0   1  35   0   0   0   1   0  57   1   0  11   0   0  54  25   0   0  96  87   0  
 1   0   0   0   1   1  36   0   0   1   8   1   0   0   2   0   1   0   0   0   0   0   0  77  92   0   0   1   0   6   0   0   0   0   0   1   2   0   0   0   0  37   1   0   0   0   0  22   5  13   0  64   0   4  22   0   9   1   1  88  
 1   1   0   0   0   0  99  97   0   0   0  60   0   1   0   1   2  35   0  42   0   3   0   0   0   1   0   0  78   0   0   0   0   0   0  45   0   0   1   1   0   0   0   0  47   0   1   0   0  48   0  58   0   0   0   0  16  49   0   0  
 3  23   0   0   0  11  16   0   1  82   0   0   0  39   0   0  27   0   2   0   0  43   0  11   0   0  35   0   0   1   0  73   0   1   0   1   0   0  28   0  11   0   0   0   0  22   0   0   0   0   1   0   0   0   0   0  48  48  30  69  
30  35   0   0   0   0  10   0  10   0   0  35   0   0   0  90   0   0   0  91   0   7   0  61   0  22  65   0   0   0  40   5   1   1   0   1  64   0  19   0   0   1   0   0   0   0  57   0   0   0   0   1  26  14  23   0   0  24   0  13  
22   0  78   5   0   0   0   0  58  11  33   0   0   0   0  10   2  39   0   0  46   0   0   0   1  24   0   0   0   0  13   0   0  28   1   1  31   0   0   0   0   0   0   0  41   0   5   0   0   0   0   3   0  44   0  10  11   0   8   0  
 0   0   0   0   0  36   0   1   0  11   0  11  94   0   1  10  89   1   0   0   0  82   0   0  13   0   0  30   0   0   0   0   0  72  38   0   0  22  31   0   0  33   0   0   0   1  34   0  29   0   0   0   9  40   0   0  83   9  75   0  
 0   1   0   0   1   0   0   0   0   0   6   0   0   0  74   0   0  42   6   0   4   2  18   0   1  78   5  36   0   0  14   0   0  24   0  45  64  32   0   0   0   0   0   1   0   0   0   0   0   0   0   7   0   0   0   0   0  29  23  51  
 0   0  83   7  99   0   0   1  53   0   0   0   5   0   0   0   2   0   0   0   1   0  36   0   0   0   0   4   0   0   0  58   6   0   0   0   0  67   0  21  12   0   0   0   0   0   1   0  21   0  34  56   0   2   0   0   8   0   1   0  
 0   0   1   1   0   0   0   1   0   0   6  39   0  10  42   0  43  61   0   0   0   1   1   2   0   0   0   0  81   8   0   0   0   0   0   0   3   2   0   0   3   0   0   0   0   3   1   1   0   1  32   0   0  33   0  54   0   0   1   0  
 0  18   0  55   1  14  20   0   3   0   1  63   0  13   0   0   0   0  59   0   0   0   6  55  47   0   0  13   1   0   1   0  24  99   0   0  11   0  38   1  68   0   0   0   1   0   0   6   0  82  59   0  67   0   0   1  39   0   0  23  
 1   1   8   0   2   0  64   0   0  85   0  45   0   0   5  79   0  64   0   0   0   0   0   0   0   0  44   0   0   0   0   0   1   0  39   0   0   0   0   0  32   0   0   0   0   9   0  51   0  80   2   1   2  11   0   0   0  26   0   0  
 1   0  27  15   0   1   0   1   1   1   0   0   0   0   0   9   0   0  11   0   0   8   0   2   0   0   1   0   0   0  27   0   0   0   0  19   0   0  67  70   1  15   0  12  29   0   0   0  31  74   0  16   0   0   0  19   0   0   1  23  
 0   2  69   0   0   0  25   0   0   0   0  38  51   4  48   0   0   0   1   0   0   0   0   0   7  61   7  85  84   0   0  77   0   1  25   0   0  20   3  48  26   0   3   0  14   0   0   1   5  18   0   2   1   0  66  21   1   0   0   0  
22   1   1  40   0   0   0   0   0   7  13   0   0   0   0   1   1   6  20   4  68   0   1   1  57  21  96   0   0   6   0  52   0   0   1   0   0   0   0   0  11   0   0   9   0   0   0   2   0   1   0   0   0   0   1   0  18   1   0  29  
 0   0   0  71   0  26   1   3   0   0   1   0   0   0   0   1   1   4  72   4   0   0  70   0   0  21   0   0   6  65   0   0   0  24  12   1   1  36  29  42   0   0   0   0   0   0   0   0   0   4   0   0   1   7   0   3   1   2  93   0  
 0   1   0   1   0   4   0   0   0   0   1   0   6   1  25  24   0   0  31   4  26  80   0   0  22   7   0   1   0   0   0   0   0   2  41   0   0   1   0  34   5   0  78   0   0   0   0   1   0   0   0  28   0   1   0   0  17   1  23   2  
66   4   0   3  94   0   1  31   0  62   0   0   0   0   0   0   1   0  23   1  30  95  60   0  55   0  25   0   0   0  66   0   1   0   0   0  23   0  34   0   6  27   0   0   0   0   0   0   1   0   0   0   0  10   0   0   0   0  18  97  
 0  16   0   8  66  68   0   0   0   8   0   0   0   1   0   0   0  19   0   1   2   0   1   0   0   0   0   0   4  80   3   1  78   0   0   0   0  23   0  17   0   0   9   0   8   0   0   0   0  90  90  44   0   0  30   3  28   0  25   0  
 0   0   0   0   0   0   0   0  42   1  61   1  18   0   0   0   1  16  88   0   0  10   0   1   1   6  27   0   1   0   0   2   0  14   0   0   0   0   0   0   0   0   0   0  39   4   0  95   7  37  21  35   0   1  92   0  34  45  12  84  
 0   0   1   0   0  29   4   0   0   0   0   0   0   0  57   0  24   0   0   0   0   1   4   1   0   0   6   0  15  37  14   0   0   1   1   0   0  42   4   1   1   0   1  36   0   4   4  15   1   0   7   1   0   3  13  17   0   1   0   0  
 0   0   1   5   3   0   0   0   0   0  23   1   1  23   0   0   0  80   0   0   0   0   0   0   0   1  43  88   0   1   0   0   0  41   1   0   0   0  73   0   1  74   0   0   0  35   0   0   0   0  14   0   0  21  25  13   0  73  11   1  
 4   0   0   0   0   0  11   0   0   0   0  41   0  22  72   0   0  12   0   0   0   1   0  30   0   0   0   4  64   0   0  17   0   1   0   0   1  36   0   1   5   0  27   0   0   1   8  57   1   0   0  34  21   0  26   0  14   4  18   9  
20   0   0   1   0  69   2  47   0   1  18   0  26   0   0  28   0   0   0   0   3   0  80   0  12   0   0   0   0  98   1  71   0   0   0   7  40   0  65   0   0   0   0   1   1  12   0   0   0   0   0   0   0  18   1  75   0   0  52   1  
 3   9  52  48   0   1  19   0   0   0   0   0  10   0   0   0   1   0   1   0   1   0  94  20   0   2  50   1   0  46   0   0   0   0   0   0   0   0   1  51   0   9   0  24   0   0  91  12   0   0   1  36   1  14  22   1   0   0   0  57  
 4   2  42   0  75   0   0   0   0  41   0   0   0   2   0   0   0   0   6   8   0   0  46  59   0  37   1  31   0   0   0   6   1   0  60   0   0   0   0   0  44   0   7   0   0  68  92   1   0   0   5   0   0  54   0   0   0  78   0   0  
 1   0   0   0   0   8   0   0   0   0   0  72   0  12   1   0   1   0   0   0   2   1   0  34   1   1   1   0   0  90   0  27   0  30  10   8   0   0   0  60   0   0   0   0  22   0   0   0   0   0  13   0   0   1   0   3   0  86   1  12  
 0  31   0   0   0   0   0   0  14   1   0   0  84  35   4   1   0   0   0   1   0   0   7  17   1   0   0  73   0  59   1  71   1   0   0   0   0  36   1  25   0  26  21   0   0   0   0   0  19  19   0  64   5   1   0  35   0   0   0  26  
 0   0   0  23  62   0  25  11   2   0   0   0   0  36   4  71   0  27  26  81   0  91  11   0  15   0   0   0   9  37   0   0   2   0  51  23   0   0  44   2   0   0   0   1   0  98   0  42   0   3  16  59   0   0   2  49   6   0   0   0  
 1   0  46  69   0   0   0   0   0   0  52   1   0   1  93   1  43   0   1   0  33  16   0   0   0   9   1   0   0  17   1  15  14   0   0   0   0  56   0  32   0  43   0   0   0   0   0  17  65   0  97   0  29   0   1  14   0   0   0  54  
 0   1  19   5  53   0   0   0   1  58   0  32   0   1   0   0   0  47   0  52  22  18  29   0   5   0  19   0   0   1   6  10   0  64   0   0   0   8   0   0   9   0   0   0   6   0   0   0   0   0   0   0   1   0  21   0   0   0   0   0  
 1   0   0  74   0   0   6   0   0   0   0  18   0   0  38   0   0   0   0  85  12   0   0   2  18   0   1   0   0   0   0  25   1   0  10  19   1  94   0   0   0   0   0  46   0   0   0   0   0   1   0   0   7  13  55  74  26   0  89   0  
 0   4   0   4  80  28   0   0  35   0   0   0   0  44   0   0   0   1   0   0   0   0   0   1  47   0  59   0   4   0   0   0   0   0   0  51   0   0  64   0   2   0  66  36   0   0   0   2   0   0   9   0   0   1   1  90  12   0   4   1  
 0   0   1   0   3   1   5   1   0   0   0  14  42   0   0  29  21   0  32   0   0   0   0   0   0   0   0  53   0  10   0   1   0  38   0  26   0   1  77   0   0   0   0   0   6  98   0   0  47   0   0   0  50   0  58   8   0   4   5   0  
 0   3   0  16  26   0   1   1   0   0  22   0   0   0   0   0  62   8   0   0   1  93   1   0   0   0   0  16   1   1   0   0   1   0   0   1  34   0   0  45   0   0   0   7   0   1   0   0  47   0   0  29   0  97   0   0   0   0   1   0  
 0  46   0   0   0   0  19   0  88   0  69   1   0  30  77  32  65   1   1   0   0   0   0   0  68   0   0   0  90  24   0   0  11   1   1   0   0   2   0  40  44   0  15   0   0   0   0  28  12   0   0   0   0   0   0  98   0   0   0   0  
 0  51   7   1   1  89  38   0   5   0   0   0   0   1   1   0  40  44   0   0   5  81   0   0   0  92   0   0  42   0   0   0   6   0   0  32   1   0   0   9   3   0   0   1   6   0   1   0   0   3  26   0   0   3   0   0   0   3  72   0  
 0   0   0   0   0   1  20   0   0   0   0   0   1   0  14   0   0   1   0   0  12   0   1  47   0   0   0  48   0   9   0  23   0   1  33   0   0   0   0   0   0   0   0   0   0   0   0   1  92   0   5   0   0   0   1  87   0   0   0   1  
94   0   6   1   0   0   0   0   0   0  50   0   0   0  11   0   0   0  30   4   0  14   0   3  41   1   0  61   0   0  75   0   1   0   0  11   0   0  18   0   0   1   1   0   0  62   0   1  66   0  95   0   0   0   0   4  13   0   0  56  
15  48   0  75   1   0  48   1   0  68  62   0   0   0  24   0   0   0   0   1   0  10   0   0   0   3  53   0   0   8   3   0   0   0   0   0   0   1  70   0   0   0   0   0   0   0   0   0   0   3   0   0  24   0   0   0   3  44   2   0  
 0   0   0   0   0   0   0  28   0   0   1   0   0   1   0  75   0   4  80   5   0   4  69   0   0   0  23  43   4   0   0   0   2   0  32   5   0   0   0   0   0   8   0   1   0   0   1  40   0   0  23   1   0   1  39   5   0   0   0   0  
 0  49   4   0   5   0   3   0   0   0   0   1   0   0  31   0  88   0   0   0   0  13   0  30   0  59   1   0   1   0   0  12   8   0   5   0  19   0  93   0  80  62   0   0   0   0   0  58   0   0   0   0   0   0   0   0   0   0  80   0  
18  86   0   0   0   0  32   0  49   0   0   0   0   1   0   1   0   0   0   0   0   0  14  14   0   0   0   0   0   1  20   1   0  63   0   0   0  43  35   0   0   0   1   0   0   0   0   0   0  40   0   9   0   1   0   0   0   0   0   0  
 0   0   1   4   6  59   0   2   0   0  25   0   0   1  97   0   0   0   0   1   0   0   0   0  84   0   0   3   0  45  13   0   1  32   1   0  16   1   0   0   0   3   0   0   0   1  25   1   1   0  34  58  71   0   4   0   1   0   0   0  
